
Log started (V11.0.0) Tue May 13 10:09:43 2008

Tried aggregator 1 time.
Reduced MIP has 110 rows, 1001 columns, and 2010 nonzeros.
Presolve time =   -0.00 sec.
Clique table members: 100.
MIP emphasis: balance optimality and feasibility.
MIP search method: dynamic search.
Parallel mode: none, using 1 thread.
Root relaxation solution time =    0.02 sec.

        Nodes                                         Cuts/
   Node  Left     Objective  IInf  Best Integer     Best Node    ItCnt     Gap

*     0+    0                        10984.0000     1013.9805      157   90.77%
*     0+    0                         1023.0000     1013.9805      157    0.88%
      0     0     1014.2824    21     1023.0000      Fract: 6      170    0.85%
*     0+    0                         1020.0000     1014.2824      170    0.56%
      0     0     1014.3942    25     1020.0000    MIRcuts: 3      192    0.55%
      0     0     1014.4243    33     1020.0000    MIRcuts: 5      205    0.55%
      0     0     1014.4372    41     1020.0000       Cuts: 8      219    0.55%
*     0+    0                         1019.0000     1014.4372      219    0.45%
*     0+    0                         1018.0000     1014.4372      219    0.35%
      0     2     1015.0000    34     1018.0000     1014.4372      219    0.35%
    100    76     1015.0000    21     1018.0000     1015.0000     2292    0.29%
    200   101     1017.0000    17     1018.0000     1015.0000     2839    0.29%
    300   174     1016.0000    17     1018.0000     1015.0000     3736    0.29%
    400   239     1016.0000    13     1018.0000     1015.0000     4383    0.29%
    500   292     1015.0000    16     1018.0000     1015.0000     6356    0.29%
    600   279     1016.0000    16     1018.0000     1015.0000     8361    0.29%
    700   263     1015.0000    24     1018.0000     1015.0000    11176    0.29%
    800   240     1015.0000    37     1018.0000     1015.0000    14344    0.29%
    900   213     1016.0000    46     1018.0000     1015.0000    17096    0.29%
   1000   266     1017.0000    16     1018.0000     1015.0000    20563    0.29%
Elapsed time =   4.06 sec. (tree size =  0.12 MB, solutions = 5)
*  1031+  137                         1017.0000     1015.0000    22195    0.20%
   1100   183     1016.0000    22     1017.0000     1015.0000    25032    0.20%
   1200   230     1016.0000    25     1017.0000     1015.0000    30546    0.20%
   1300   286     1016.0000    19     1017.0000     1015.0000    34748    0.20%
   1400   354     1016.0000    28     1017.0000     1015.0000    41371    0.20%
   1500   413    infeasible           1017.0000     1015.0000    45881    0.20%
   1600   485    infeasible           1017.0000     1015.0000    52093    0.20%
   1700   518     1016.0000    11     1017.0000     1015.0000    59818    0.20%
   1800   595     1016.0000    42     1017.0000     1015.0000    65609    0.20%
   1900   665     1016.0000    14     1017.0000     1015.0000    69901    0.20%
   2000   740     1016.0000    26     1017.0000     1015.0000    75634    0.20%
Elapsed time =  10.78 sec. (tree size =  0.36 MB, solutions = 6)
   2100   824     1016.0000    24     1017.0000     1015.0000    78835    0.20%
   2200   889    infeasible           1017.0000     1015.0000    85213    0.20%
   2300   959     1016.0000    27     1017.0000     1015.0000    89996    0.20%
   2400   999     1016.0000    20     1017.0000     1015.0000    93972    0.20%
*  2491+  101                         1016.0000     1015.0000    99119    0.10%
   2500   101    infeasible           1016.0000     1015.0000   101542    0.10%
   2600    82    infeasible           1016.0000     1015.0000   139049    0.10%
   2700    27    infeasible           1016.0000     1015.0000   183067    0.10%

Cover cuts applied:  355
Mixed integer rounding cuts applied:  16
Gomory fractional cuts applied:  11

Solution pool: 7 solutions saved.

MIP - Integer optimal solution:  Objective = 1.0160000000e+003
Solution time =   32.34 sec.  Iterations = 207692  Nodes = 2756


Incumbent solution
Variable Name           Solution Value
Cmax                       1016.000000
X_1_1                         1.000000
X_2_6                         1.000000
X_3_2                         1.000000
X_4_6                         1.000000
X_5_2                         1.000000
X_6_5                         1.000000
X_7_7                         1.000000
X_8_9                         1.000000
X_9_7                         1.000000
X_10_3                        1.000000
X_11_6                        1.000000
X_12_9                        1.000000
X_13_5                        1.000000
X_14_10                       1.000000
X_15_9                        1.000000
X_16_5                        1.000000
X_17_4                        1.000000
X_18_8                        1.000000
X_19_9                        1.000000
X_20_6                        1.000000
X_21_1                        1.000000
X_22_3                        1.000000
X_23_7                        1.000000
X_24_8                        1.000000
X_25_7                        1.000000
X_26_7                        1.000000
X_27_10                       1.000000
X_28_6                        1.000000
X_29_9                        1.000000
X_30_3                        1.000000
X_31_4                        1.000000
X_32_1                        1.000000
X_33_4                        1.000000
X_34_6                        1.000000
X_35_8                        1.000000
X_36_10                       1.000000
X_37_9                        1.000000
X_38_9                        1.000000
X_39_5                        1.000000
X_40_7                        1.000000
X_41_7                        1.000000
X_42_1                        1.000000
X_43_6                        1.000000
X_44_1                        1.000000
X_45_8                        1.000000
X_46_6                        1.000000
X_47_10                       1.000000
X_48_8                        1.000000
X_49_7                        1.000000
X_50_10                       1.000000
X_51_9                        1.000000
X_52_8                        1.000000
X_53_10                       1.000000
X_54_3                        1.000000
X_55_4                        1.000000
X_56_2                        1.000000
X_57_5                        1.000000
X_58_3                        1.000000
X_59_8                        1.000000
X_60_1                        1.000000
X_61_4                        1.000000
X_62_3                        1.000000
X_63_2                        1.000000
X_64_10                       1.000000
X_65_4                        1.000000
X_66_6                        1.000000
X_67_9                        1.000000
X_68_8                        1.000000
X_69_5                        1.000000
X_70_2                        1.000000
X_71_5                        1.000000
X_72_4                        1.000000
X_73_6                        1.000000
X_74_1                        1.000000
X_75_5                        1.000000
X_76_8                        1.000000
X_77_2                        1.000000
X_78_5                        1.000000
X_79_4                        1.000000
X_80_3                        1.000000
X_81_3                        1.000000
X_82_10                       1.000000
X_83_8                        1.000000
X_84_10                       1.000000
X_85_5                        1.000000
X_86_3                        1.000000
X_87_2                        1.000000
X_88_4                        1.000000
X_89_3                        1.000000
X_90_2                        1.000000
X_91_7                        1.000000
X_92_1                        1.000000
X_93_1                        1.000000
X_94_9                        1.000000
X_95_4                        1.000000
X_96_2                        1.000000
X_97_1                        1.000000
X_98_10                       1.000000
X_99_2                        1.000000
X_100_7                       1.000000
All other variables in the range 1-1001 are 0.
